50
24129

622 805
258 816
356 423
312 39
349 665
368 258
876 335
7 401
467 225
144 931
683 273
809 14
963 463
858 300
133 513
844 54
770 272
542 197
849 414
962 84
721 450
803 547
111 270
506 918
373 867
947 835
427 205
288 533
584 670
225 831
114 653
265 944
227 592
891 528
644 255
607 428
262 859
893 603
494 331
522 155
961 594
986 6
643 641
505 328
823 350
142 671
731 441
172 714
61 484
443 680
